************************************************************************
file with basedata            : j60_47.bas
initial value random generator: 650268509
************************************************************************
projects                      :  1
jobs (incl. supersource/sink ):  62
horizon                       :  342
RESOURCES
  - renewable                 :  4   R
  - nonrenewable              :  0   N
  - doubly constrained        :  0   D
************************************************************************
PROJECT INFORMATION:
pronr.  #jobs rel.date duedate tardcost  MPM-Time
    1     60      0       74       15       74
************************************************************************
PRECEDENCE RELATIONS:
jobnr.    #modes  #successors   successors
   1        1          3           2   3   4
   2        1          3           6  23  58
   3        1          2          18  29
   4        1          3           5  16  19
   5        1          3           8   9  12
   6        1          3           7  15  48
   7        1          3          29  31  53
   8        1          2          10  27
   9        1          3          28  32  54
  10        1          3          11  24  30
  11        1          3          14  37  56
  12        1          3          13  17  25
  13        1          1          21
  14        1          3          20  43  57
  15        1          1          16
  16        1          1          34
  17        1          1          27
  18        1          2          22  42
  19        1          2          22  50
  20        1          1          29
  21        1          3          22  36  41
  22        1          1          54
  23        1          2          34  43
  24        1          1          33
  25        1          2          26  34
  26        1          3          30  46  49
  27        1          3          28  46  51
  28        1          1          38
  29        1          1          41
  30        1          2          52  61
  31        1          1          43
  32        1          3          35  36  47
  33        1          2          35  41
  34        1          2          38  47
  35        1          2          37  56
  36        1          2          39  55
  37        1          2          38  49
  38        1          1          59
  39        1          2          40  46
  40        1          2          42  48
  41        1          1          54
  42        1          2          44  50
  43        1          2          52  61
  44        1          2          45  60
  45        1          1          53
  46        1          2          48  50
  47        1          3          49  53  57
  48        1          1          57
  49        1          1          52
  50        1          1          56
  51        1          2          55  58
  52        1          1          55
  53        1          1          61
  54        1          1          60
  55        1          1          59
  56        1          1          58
  57        1          1          59
  58        1          1          60
  59        1          1          62
  60        1          1          62
  61        1          1          62
  62        1          0        
************************************************************************
REQUESTS/DURATIONS:
jobnr. mode duration  R 1  R 2  R 3  R 4
------------------------------------------------------------------------
  1      1     0       0    0    0    0
  2      1     3       4    9   10    9
  3      1     9       7    4   10    4
  4      1     9      10    6    2   10
  5      1     8       5    7    4    3
  6      1    10       3   10    3    8
  7      1     1       9    3   10    8
  8      1     2       5    7   10    8
  9      1     7      10    9    1    7
 10      1     2       7    4    9    8
 11      1     6       2    3    9   10
 12      1     7       8   10    8    4
 13      1     4       1    8    8    8
 14      1     9       9    3    9    8
 15      1     6       5    4    7   10
 16      1     9       8    2    3    2
 17      1     9       4    2    1    9
 18      1     7       4    9    9    7
 19      1     7       7   10    8    2
 20      1     6       4    1    1    1
 21      1     8       7    1   10    6
 22      1     5       5    3    1    6
 23      1     1       1    4    9    5
 24      1     6      10   10    3    8
 25      1     2       6    4    7    6
 26      1    10       8    2    7    8
 27      1     1       2    3    2   10
 28      1    10       7    7    3    4
 29      1     6       5    5    8    3
 30      1    10       9   10   10    7
 31      1     5       1    5    7    5
 32      1     3       8    3    6    4
 33      1     2       5    1    1    3
 34      1     9       6    8    9   10
 35      1     5       4    5   10   10
 36      1     2       2    3    8   10
 37      1     5       8    3    9   10
 38      1     3      10    6    9    4
 39      1     9      10   10    9    3
 40      1     3       5   10    5    7
 41      1     8      10    3    6    1
 42      1     7       2    6    6    4
 43      1     6       5    4    9    5
 44      1     4       1    9    6    8
 45      1     1       3    9    2    1
 46      1     8       4    1    3    3
 47      1     9       9    6    7    8
 48      1     4       8    1    3    2
 49      1     6       1    4    8    8
 50      1     2       1    1    9    8
 51      1     6       5    8    9    5
 52      1     6       6    5    4    8
 53      1     8       9    5    3    1
 54      1     5       2    7    9    1
 55      1    10       6    5    4    9
 56      1     4       3    1    1    1
 57      1     4       9    4    5    6
 58      1     2       9    1    1    4
 59      1     5       8    6    1    4
 60      1     7       1    2    9    2
 61      1     4       6    1   10    4
 62      1     0       0    0    0    0
************************************************************************
RESOURCEAVAILABILITIES:
  R 1  R 2  R 3  R 4
   46   39   44   44
************************************************************************
